%%%mzn-stat: initTime=0.00320706
%%%mzn-stat: objective=313
%%%mzn-stat: nodes=381
%%%mzn-stat: restarts=0
%%%mzn-stat: peakDepth=68
%%%mzn-stat: solveTime=0.021512795
%%%mzn-stat: variables=366
%%%mzn-stat: propagators=249
%%%mzn-stat: failures=313
%%%mzn-stat: propagations=56945
%%%mzn-stat: nogoods=313
%%%mzn-stat: AverageConflictSize=2
%%%mzn-stat: NumUnitNogoodsLearned=312
%%%mzn-stat: AverageLearnedNogoodLength=1.0447284345047922
%%%mzn-stat: AverageBacktrackAmount=0
%%%mzn-stat: AverageLbd=1.0031948881789137
%%%mzn-stat-end
maxleg = 313;
succ = array1d(1..20,[19, 4, 18, 15, 2, 10, 20, 11, 16, 8, 17, 14, 7, 13, 12, 1, 3, 9, 5, 6]);
% time elapsed: 1.47 s
----------
==========
% time elapsed: 1.47 s
%%%mzn-stat: initTime=0.00320706
%%%mzn-stat: objective=313
%%%mzn-stat: nodes=381
%%%mzn-stat: restarts=0
%%%mzn-stat: peakDepth=68
%%%mzn-stat: solveTime=0.021519632
%%%mzn-stat: variables=366
%%%mzn-stat: propagators=249
%%%mzn-stat: failures=313
%%%mzn-stat: propagations=56945
%%%mzn-stat: nogoods=313
%%%mzn-stat: AverageConflictSize=2
%%%mzn-stat: NumUnitNogoodsLearned=312
%%%mzn-stat: AverageLearnedNogoodLength=1.0447284345047922
%%%mzn-stat: AverageBacktrackAmount=0
%%%mzn-stat: AverageLbd=1.0031948881789137
%%%mzn-stat-end
